n = 25
Q1 = [0 22 28 49 44 0 14 32 16 13 0 45 16 43 5 25 42 5 0 0 27 11 17 41 0; 0 0 45 0 0 49 0 7 13 28 34 0 0 0 45 32 9 26 0 0 0 28 0 0 39; 0 0 0 5 48 24 20 30 0 33 22 6 49 44 27 0 22 0 0 33 39 16 42 0 11; 0 0 0 0 16 45 40 39 16 7 21 43 0 42 35 23 26 44 25 36 0 39 32 27 20; 0 0 0 0 0 6 0 39 32 47 12 43 26 26 35 0 19 32 15 0 7 8 50 13 21; 0 0 0 0 0 0 14 27 5 49 42 49 0 38 0 0 20 12 0 5 5 28 0 42 36; 0 0 0 0 0 0 0 42 46 29 33 43 25 0 20 49 0 12 16 21 0 39 17 0 0; 0 0 0 0 0 0 0 0 33 0 0 0 43 47 43 30 11 12 42 0 40 36 0 0 13; 0 0 0 0 0 0 0 0 0 29 0 48 0 12 14 30 19 21 16 9 0 0 24 0 20; 0 0 0 0 0 0 0 0 0 0 0 10 24 12 46 45 42 37 31 34 15 19 41 36 18; 0 0 0 0 0 0 0 0 0 0 0 46 0 0 26 0 42 5 41 0 42 28 46 50 37; 0 0 0 0 0 0 0 0 0 0 0 0 37 0 5 37 43 50 11 31 48 0 0 0 0; 0 0 0 0 0 0 0 0 0 0 0 0 0 0 20 0 16 47 22 48 40 9 28 36 0; 0 0 0 0 0 0 0 0 0 0 0 0 0 0 38 24 0 0 45 46 36 33 40 37 38; 0 0 0 0 0 0 0 0 0 0 0 0 0 0 0 49 31 27 24 24 49 34 40 38 15; 0 0 0 0 0 0 0 0 0 0 0 0 0 0 0 0 39 0 0 44 49 20 20 0 50; 0 0 0 0 0 0 0 0 0 0 0 0 0 0 0 0 0 0 6 0 14 17 39 44 0; 0 0 0 0 0 0 0 0 0 0 0 0 0 0 0 0 0 0 19 0 16 27 13 0 36; 0 0 0 0 0 0 0 0 0 0 0 0 0 0 0 0 0 0 0 43 15 30 39 15 24; 0 0 0 0 0 0 0 0 0 0 0 0 0 0 0 0 0 0 0 0 47 45 25 18 16; 0 0 0 0 0 0 0 0 0 0 0 0 0 0 0 0 0 0 0 0 0 0 13 0 48; 0 0 0 0 0 0 0 0 0 0 0 0 0 0 0 0 0 0 0 0 0 0 0 46 7; 0 0 0 0 0 0 0 0 0 0 0 0 0 0 0 0 0 0 0 0 0 0 0 41 49; 0 0 0 0 0 0 0 0 0 0 0 0 0 0 0 0 0 0 0 0 0 0 0 0 27; 0 0 0 0 0 0 0 0 0 0 0 0 0 0 0 0 0 0 0 0 0 0 0 0 0]
Q2 = [0.0 37.0 17.0 1.0 1.0 0.0 49.0 17.0 41.0 38.0 0.0 3.0 42.0 3.0 47.0 19.0 3.0 50.0 0.0 0.0 3.0 44.0 47.0 5.0 0.0; 0.0 0.0 5.0 0.0 0.0 0.0 0.0 45.0 38.0 17.0 14.0 0.0 0.0 0.0 5.0 0.0 41.0 20.0 0.0 0.0 0.0 15.0 0.0 0.0 11.0; 0.0 0.0 0.0 49.0 1.0 33.0 44.0 5.0 0.0 11.0 34.0 49.0 0.0 5.0 19.0 0.0 39.0 0.0 0.0 16.0 6.0 42.0 0.0 0.0 40.0; 0.0 0.0 0.0 0.0 36.0 0.0 4.0 4.0 43.0 46.0 35.0 0.0 0.0 1.0 9.0 46.0 13.0 3.0 10.0 3.0 0.0 8.0 9.0 4.0 40.0; 0.0 0.0 0.0 0.0 0.0 46.0 0.0 5.0 8.0 3.0 45.0 7.0 4.0 2.0 3.0 0.0 41.0 1.0 35.0 0.0 49.0 50.0 0.0 45.0 47.0; 0.0 0.0 0.0 0.0 0.0 0.0 39.0 22.0 45.0 0.0 3.0 1.0 0.0 3.0 0.0 0.0 46.0 41.0 0.0 45.0 46.0 8.0 0.0 5.0 6.0; 0.0 0.0 0.0 0.0 0.0 0.0 0.0 7.0 4.0 11.0 10.0 6.0 8.0 0.0 36.0 0.0 0.0 45.0 44.0 46.0 0.0 8.0 40.0 0.0 0.0; 0.0 0.0 0.0 0.0 0.0 0.0 0.0 0.0 13.0 0.0 0.0 0.0 7.0 3.0 1.0 5.0 46.0 46.0 4.0 0.0 10.0 13.0 0.0 0.0 48.0; 0.0 0.0 0.0 0.0 0.0 0.0 0.0 0.0 0.0 7.0 0.0 2.0 0.0 38.0 42.0 3.0 49.0 31.0 43.0 48.0 0.0 0.0 33.0 0.0 38.0; 0.0 0.0 0.0 0.0 0.0 0.0 0.0 0.0 0.0 0.0 0.0 47.0 34.0 47.0 0.0 3.0 6.0 13.0 9.0 14.0 48.0 38.0 9.0 8.0 47.0; 0.0 0.0 0.0 0.0 0.0 0.0 0.0 0.0 0.0 0.0 0.0 4.0 0.0 0.0 7.0 0.0 2.0 49.0 5.0 0.0 0.0 5.0 1.0 0.0 10.0; 0.0 0.0 0.0 0.0 0.0 0.0 0.0 0.0 0.0 0.0 0.0 0.0 4.0 0.0 48.0 3.0 6.0 0.0 44.0 17.0 2.0 0.0 0.0 0.0 0.0; 0.0 0.0 0.0 0.0 0.0 0.0 0.0 0.0 0.0 0.0 0.0 0.0 0.0 0.0 32.0 0.0 37.0 1.0 45.0 1.0 4.0 50.0 21.0 0.0 0.0; 0.0 0.0 0.0 0.0 0.0 0.0 0.0 0.0 0.0 0.0 0.0 0.0 0.0 0.0 7.0 32.0 0.0 0.0 3.0 3.0 4.0 14.0 3.0 11.0 9.0; 0.0 0.0 0.0 0.0 0.0 0.0 0.0 0.0 0.0 0.0 0.0 0.0 0.0 0.0 0.0 0.0 19.0 5.0 26.0 48.0 1.0 12.0 6.0 1.0 43.0; 0.0 0.0 0.0 0.0 0.0 0.0 0.0 0.0 0.0 0.0 0.0 0.0 0.0 0.0 0.0 0.0 10.0 0.0 0.0 2.0 1.0 35.0 43.0 0.0 0.0; 0.0 0.0 0.0 0.0 0.0 0.0 0.0 0.0 0.0 0.0 0.0 0.0 0.0 0.0 0.0 0.0 0.0 0.0 46.0 0.0 47.0 34.0 0.0 3.0 0.0; 0.0 0.0 0.0 0.0 0.0 0.0 0.0 0.0 0.0 0.0 0.0 0.0 0.0 0.0 0.0 0.0 0.0 0.0 46.0 0.0 37.0 17.0 44.0 0.0 6.0; 0.0 0.0 0.0 0.0 0.0 0.0 0.0 0.0 0.0 0.0 0.0 0.0 0.0 0.0 0.0 0.0 0.0 0.0 0.0 6.0 48.0 2.0 9.0 44.0 30.0; 0.0 0.0 0.0 0.0 0.0 0.0 0.0 0.0 0.0 0.0 0.0 0.0 0.0 0.0 0.0 0.0 0.0 0.0 0.0 0.0 2.0 2.0 0.0 48.0 39.0; 0.0 0.0 0.0 0.0 0.0 0.0 0.0 0.0 0.0 0.0 0.0 0.0 0.0 0.0 0.0 0.0 0.0 0.0 0.0 0.0 0.0 0.0 49.0 0.0 2.0; 0.0 0.0 0.0 0.0 0.0 0.0 0.0 0.0 0.0 0.0 0.0 0.0 0.0 0.0 0.0 0.0 0.0 0.0 0.0 0.0 0.0 0.0 0.0 2.0 45.0; 0.0 0.0 0.0 0.0 0.0 0.0 0.0 0.0 0.0 0.0 0.0 0.0 0.0 0.0 0.0 0.0 0.0 0.0 0.0 0.0 0.0 0.0 0.0 4.0 0.0; 0.0 0.0 0.0 0.0 0.0 0.0 0.0 0.0 0.0 0.0 0.0 0.0 0.0 0.0 0.0 0.0 0.0 0.0 0.0 0.0 0.0 0.0 0.0 0.0 16.0; 0.0 0.0 0.0 0.0 0.0 0.0 0.0 0.0 0.0 0.0 0.0 0.0 0.0 0.0 0.0 0.0 0.0 0.0 0.0 0.0 0.0 0.0 0.0 0.0 0.0]
Q3 = [0 3 6 19 17 72 6 5 3 2 72 21 11 9 0 22 18 14 72 72 52 4 0 7 72; 0 0 14 72 72 4 72 1 12 2 5 72 72 72 22 46 6 13 72 72 72 5 72 72 4; 0 0 0 1 14 13 1 42 72 5 15 4 6 14 20 72 3 72 72 7 13 3 22 72 8; 0 0 0 0 6 21 13 3 12 0 9 25 72 18 9 3 12 2 39 5 72 12 9 68 3; 0 0 0 0 0 7 72 27 13 16 6 21 72 51 33 72 11 42 21 72 11 12 12 3 4; 0 0 0 0 0 0 15 21 11 7 15 21 72 17 72 72 1 12 72 10 19 0 72 5 13; 0 0 0 0 0 0 0 19 22 25 12 1 60 72 9 22 72 15 8 2 72 24 6 72 72; 0 0 0 0 0 0 0 0 4 72 72 72 18 18 18 60 8 12 25 72 11 14 72 72 0; 0 0 0 0 0 0 0 0 0 32 72 9 72 16 9 70 4 14 3 13 72 72 8 72 10; 0 0 0 0 0 0 0 0 0 0 72 12 6 2 18 12 24 5 13 2 2 12 4 11 1; 0 0 0 0 0 0 0 0 0 0 0 6 72 72 49 72 8 10 25 72 7 54 20 13 3; 0 0 0 0 0 0 0 0 0 0 0 0 20 72 7 15 4 13 0 11 13 72 72 72 72; 0 0 0 0 0 0 0 0 0 0 0 0 0 72 4 72 0 3 1 20 18 9 12 36 72; 0 0 0 0 0 0 0 0 0 0 0 0 0 0 0 16 72 72 7 16 6 10 22 17 25; 0 0 0 0 0 0 0 0 0 0 0 0 0 0 0 12 15 50 18 0 2 8 5 21 5; 0 0 0 0 0 0 0 0 0 0 0 0 0 0 0 0 20 72 72 8 12 13 0 72 4; 0 0 0 0 0 0 0 0 0 0 0 0 0 0 0 0 0 72 1 72 8 15 33 9 72; 0 0 0 0 0 0 0 0 0 0 0 0 0 0 0 0 0 0 2 72 7 2 1 72 19; 0 0 0 0 0 0 0 0 0 0 0 0 0 0 0 0 0 0 0 1 9 44 4 2 1; 0 0 0 0 0 0 0 0 0 0 0 0 0 0 0 0 0 0 0 0 21 12 66 4 1; 0 0 0 0 0 0 0 0 0 0 0 0 0 0 0 0 0 0 0 0 0 72 5 72 16; 0 0 0 0 0 0 0 0 0 0 0 0 0 0 0 0 0 0 0 0 0 0 72 18 14; 0 0 0 0 0 0 0 0 0 0 0 0 0 0 0 0 0 0 0 0 0 0 0 2 6; 0 0 0 0 0 0 0 0 0 0 0 0 0 0 0 0 0 0 0 0 0 0 0 0 14; 0 0 0 0 0 0 0 0 0 0 0 0 0 0 0 0 0 0 0 0 0 0 0 0 0]
